p cnf 693 2259
1 2 0
-1 -2 0
43 44 0
-43 -44 0
85 86 0
-85 -86 0
127 128 0
-127 -128 0
169 170 0
-169 -170 0
211 212 0
-211 -212 0
253 254 0
-253 -254 0
295 296 0
-295 -296 0
3 4 0
-3 -4 0
45 46 0
-45 -46 0
87 88 0
-87 -88 0
129 130 0
-129 -130 0
171 172 0
-171 -172 0
213 214 0
-213 -214 0
255 256 0
-255 -256 0
297 298 0
-297 -298 0
5 6 0
-5 -6 0
47 48 0
-47 -48 0
89 90 0
-89 -90 0
131 132 0
-131 -132 0
173 174 0
-173 -174 0
215 216 0
-215 -216 0
257 258 0
-257 -258 0
299 300 0
-299 -300 0
7 8 0
-7 -8 0
49 50 0
-49 -50 0
91 92 0
-91 -92 0
133 134 0
-133 -134 0
175 176 0
-175 -176 0
217 218 0
-217 -218 0
259 260 0
-259 -260 0
301 302 0
-301 -302 0
9 10 0
-9 -10 0
51 52 0
-51 -52 0
93 94 0
-93 -94 0
135 136 0
-135 -136 0
177 178 0
-177 -178 0
219 220 0
-219 -220 0
261 262 0
-261 -262 0
303 304 0
-303 -304 0
11 12 0
-11 -12 0
53 54 0
-53 -54 0
95 96 0
-95 -96 0
137 138 0
-137 -138 0
179 180 0
-179 -180 0
221 222 0
-221 -222 0
263 264 0
-263 -264 0
305 306 0
-305 -306 0
13 14 0
-13 -14 0
55 56 0
-55 -56 0
97 98 0
-97 -98 0
139 140 0
-139 -140 0
181 182 0
-181 -182 0
223 224 0
-223 -224 0
265 266 0
-265 -266 0
307 308 0
-307 -308 0
15 16 0
-15 -16 0
57 58 0
-57 -58 0
99 100 0
-99 -100 0
141 142 0
-141 -142 0
183 184 0
-183 -184 0
225 226 0
-225 -226 0
267 268 0
-267 -268 0
309 310 0
-309 -310 0
17 18 0
-17 -18 0
59 60 0
-59 -60 0
101 102 0
-101 -102 0
143 144 0
-143 -144 0
185 186 0
-185 -186 0
227 228 0
-227 -228 0
269 270 0
-269 -270 0
311 312 0
-311 -312 0
19 20 0
-19 -20 0
61 62 0
-61 -62 0
103 104 0
-103 -104 0
145 146 0
-145 -146 0
187 188 0
-187 -188 0
229 230 0
-229 -230 0
271 272 0
-271 -272 0
313 314 0
-313 -314 0
21 22 0
-21 -22 0
63 64 0
-63 -64 0
105 106 0
-105 -106 0
147 148 0
-147 -148 0
189 190 0
-189 -190 0
231 232 0
-231 -232 0
273 274 0
-273 -274 0
315 316 0
-315 -316 0
23 24 0
-23 -24 0
65 66 0
-65 -66 0
107 108 0
-107 -108 0
149 150 0
-149 -150 0
191 192 0
-191 -192 0
233 234 0
-233 -234 0
275 276 0
-275 -276 0
317 318 0
-317 -318 0
25 26 0
-25 -26 0
67 68 0
-67 -68 0
109 110 0
-109 -110 0
151 152 0
-151 -152 0
193 194 0
-193 -194 0
235 236 0
-235 -236 0
277 278 0
-277 -278 0
319 320 0
-319 -320 0
27 28 0
-27 -28 0
69 70 0
-69 -70 0
111 112 0
-111 -112 0
153 154 0
-153 -154 0
195 196 0
-195 -196 0
237 238 0
-237 -238 0
279 280 0
-279 -280 0
321 322 0
-321 -322 0
29 30 0
-29 -30 0
71 72 0
-71 -72 0
113 114 0
-113 -114 0
155 156 0
-155 -156 0
197 198 0
-197 -198 0
239 240 0
-239 -240 0
281 282 0
-281 -282 0
323 324 0
-323 -324 0
31 32 0
-31 -32 0
73 74 0
-73 -74 0
115 116 0
-115 -116 0
157 158 0
-157 -158 0
199 200 0
-199 -200 0
241 242 0
-241 -242 0
283 284 0
-283 -284 0
325 326 0
-325 -326 0
33 34 0
-33 -34 0
75 76 0
-75 -76 0
117 118 0
-117 -118 0
159 160 0
-159 -160 0
201 202 0
-201 -202 0
243 244 0
-243 -244 0
285 286 0
-285 -286 0
327 328 0
-327 -328 0
35 36 0
-35 -36 0
77 78 0
-77 -78 0
119 120 0
-119 -120 0
161 162 0
-161 -162 0
203 204 0
-203 -204 0
245 246 0
-245 -246 0
287 288 0
-287 -288 0
329 330 0
-329 -330 0
37 38 0
-37 -38 0
79 80 0
-79 -80 0
121 122 0
-121 -122 0
163 164 0
-163 -164 0
205 206 0
-205 -206 0
247 248 0
-247 -248 0
289 290 0
-289 -290 0
331 332 0
-331 -332 0
39 40 0
-39 -40 0
81 82 0
-81 -82 0
123 124 0
-123 -124 0
165 166 0
-165 -166 0
207 208 0
-207 -208 0
249 250 0
-249 -250 0
291 292 0
-291 -292 0
333 334 0
-333 -334 0
41 42 0
-41 -42 0
83 84 0
-83 -84 0
125 126 0
-125 -126 0
167 168 0
-167 -168 0
209 210 0
-209 -210 0
251 252 0
-251 -252 0
293 294 0
-293 -294 0
335 336 0
-335 -336 0
-1 -43 4 0
-1 -44 4 0
-2 -43 4 0
-2 -44 3 0
-43 -1 -85 46 0
-43 -2 -85 46 0
-43 -1 -86 46 0
-43 -2 -86 46 0
-44 -1 -85 46 0
-44 -2 -85 46 0
-44 -1 -86 46 0
-44 -2 -86 45 0
-85 -43 -127 88 0
-85 -44 -127 88 0
-85 -43 -128 88 0
-85 -44 -128 88 0
-86 -43 -127 88 0
-86 -44 -127 88 0
-86 -43 -128 88 0
-86 -44 -128 87 0
-127 -85 -169 130 0
-127 -86 -169 130 0
-127 -85 -170 130 0
-127 -86 -170 130 0
-128 -85 -169 130 0
-128 -86 -169 130 0
-128 -85 -170 130 0
-128 -86 -170 129 0
-169 -127 -211 172 0
-169 -128 -211 172 0
-169 -127 -212 172 0
-169 -128 -212 172 0
-170 -127 -211 172 0
-170 -128 -211 172 0
-170 -127 -212 172 0
-170 -128 -212 171 0
-211 -169 -253 214 0
-211 -170 -253 214 0
-211 -169 -254 214 0
-211 -170 -254 214 0
-212 -169 -253 214 0
-212 -170 -253 214 0
-212 -169 -254 214 0
-212 -170 -254 213 0
-253 -211 -295 256 0
-253 -212 -295 256 0
-253 -211 -296 256 0
-253 -212 -296 256 0
-254 -211 -295 256 0
-254 -212 -295 256 0
-254 -211 -296 256 0
-254 -212 -296 255 0
-295 -253 298 0
-295 -254 298 0
-296 -253 298 0
-296 -254 297 0
-3 -45 6 0
-3 -46 6 0
-4 -45 6 0
-4 -46 5 0
-45 -3 -87 48 0
-45 -4 -87 48 0
-45 -3 -88 48 0
-45 -4 -88 48 0
-46 -3 -87 48 0
-46 -4 -87 48 0
-46 -3 -88 48 0
-46 -4 -88 47 0
-87 -45 -129 90 0
-87 -46 -129 90 0
-87 -45 -130 90 0
-87 -46 -130 90 0
-88 -45 -129 90 0
-88 -46 -129 90 0
-88 -45 -130 90 0
-88 -46 -130 89 0
-129 -87 -171 132 0
-129 -88 -171 132 0
-129 -87 -172 132 0
-129 -88 -172 132 0
-130 -87 -171 132 0
-130 -88 -171 132 0
-130 -87 -172 132 0
-130 -88 -172 131 0
-171 -129 -213 174 0
-171 -130 -213 174 0
-171 -129 -214 174 0
-171 -130 -214 174 0
-172 -129 -213 174 0
-172 -130 -213 174 0
-172 -129 -214 174 0
-172 -130 -214 173 0
-213 -171 -255 216 0
-213 -172 -255 216 0
-213 -171 -256 216 0
-213 -172 -256 216 0
-214 -171 -255 216 0
-214 -172 -255 216 0
-214 -171 -256 216 0
-214 -172 -256 215 0
-255 -213 -297 258 0
-255 -214 -297 258 0
-255 -213 -298 258 0
-255 -214 -298 258 0
-256 -213 -297 258 0
-256 -214 -297 258 0
-256 -213 -298 258 0
-256 -214 -298 257 0
-297 -255 300 0
-297 -256 300 0
-298 -255 300 0
-298 -256 299 0
-5 -47 8 0
-5 -48 8 0
-6 -47 8 0
-6 -48 7 0
-47 -5 -89 50 0
-47 -6 -89 50 0
-47 -5 -90 50 0
-47 -6 -90 50 0
-48 -5 -89 50 0
-48 -6 -89 50 0
-48 -5 -90 50 0
-48 -6 -90 49 0
-89 -47 -131 92 0
-89 -48 -131 92 0
-89 -47 -132 92 0
-89 -48 -132 92 0
-90 -47 -131 92 0
-90 -48 -131 92 0
-90 -47 -132 92 0
-90 -48 -132 91 0
-131 -89 -173 134 0
-131 -90 -173 134 0
-131 -89 -174 134 0
-131 -90 -174 134 0
-132 -89 -173 134 0
-132 -90 -173 134 0
-132 -89 -174 134 0
-132 -90 -174 133 0
-173 -131 -215 176 0
-173 -132 -215 176 0
-173 -131 -216 176 0
-173 -132 -216 176 0
-174 -131 -215 176 0
-174 -132 -215 176 0
-174 -131 -216 176 0
-174 -132 -216 175 0
-215 -173 -257 218 0
-215 -174 -257 218 0
-215 -173 -258 218 0
-215 -174 -258 218 0
-216 -173 -257 218 0
-216 -174 -257 218 0
-216 -173 -258 218 0
-216 -174 -258 217 0
-257 -215 -299 260 0
-257 -216 -299 260 0
-257 -215 -300 260 0
-257 -216 -300 260 0
-258 -215 -299 260 0
-258 -216 -299 260 0
-258 -215 -300 260 0
-258 -216 -300 259 0
-299 -257 302 0
-299 -258 302 0
-300 -257 302 0
-300 -258 301 0
-7 -49 10 0
-7 -50 10 0
-8 -49 10 0
-8 -50 9 0
-49 -7 -91 52 0
-49 -8 -91 52 0
-49 -7 -92 52 0
-49 -8 -92 52 0
-50 -7 -91 52 0
-50 -8 -91 52 0
-50 -7 -92 52 0
-50 -8 -92 51 0
-91 -49 -133 94 0
-91 -50 -133 94 0
-91 -49 -134 94 0
-91 -50 -134 94 0
-92 -49 -133 94 0
-92 -50 -133 94 0
-92 -49 -134 94 0
-92 -50 -134 93 0
-133 -91 -175 136 0
-133 -92 -175 136 0
-133 -91 -176 136 0
-133 -92 -176 136 0
-134 -91 -175 136 0
-134 -92 -175 136 0
-134 -91 -176 136 0
-134 -92 -176 135 0
-175 -133 -217 178 0
-175 -134 -217 178 0
-175 -133 -218 178 0
-175 -134 -218 178 0
-176 -133 -217 178 0
-176 -134 -217 178 0
-176 -133 -218 178 0
-176 -134 -218 177 0
-217 -175 -259 220 0
-217 -176 -259 220 0
-217 -175 -260 220 0
-217 -176 -260 220 0
-218 -175 -259 220 0
-218 -176 -259 220 0
-218 -175 -260 220 0
-218 -176 -260 219 0
-259 -217 -301 262 0
-259 -218 -301 262 0
-259 -217 -302 262 0
-259 -218 -302 262 0
-260 -217 -301 262 0
-260 -218 -301 262 0
-260 -217 -302 262 0
-260 -218 -302 261 0
-301 -259 304 0
-301 -260 304 0
-302 -259 304 0
-302 -260 303 0
-9 -51 12 0
-9 -52 12 0
-10 -51 12 0
-10 -52 11 0
-51 -9 -93 54 0
-51 -10 -93 54 0
-51 -9 -94 54 0
-51 -10 -94 54 0
-52 -9 -93 54 0
-52 -10 -93 54 0
-52 -9 -94 54 0
-52 -10 -94 53 0
-93 -51 -135 96 0
-93 -52 -135 96 0
-93 -51 -136 96 0
-93 -52 -136 96 0
-94 -51 -135 96 0
-94 -52 -135 96 0
-94 -51 -136 96 0
-94 -52 -136 95 0
-135 -93 -177 138 0
-135 -94 -177 138 0
-135 -93 -178 138 0
-135 -94 -178 138 0
-136 -93 -177 138 0
-136 -94 -177 138 0
-136 -93 -178 138 0
-136 -94 -178 137 0
-177 -135 -219 180 0
-177 -136 -219 180 0
-177 -135 -220 180 0
-177 -136 -220 180 0
-178 -135 -219 180 0
-178 -136 -219 180 0
-178 -135 -220 180 0
-178 -136 -220 179 0
-219 -177 -261 222 0
-219 -178 -261 222 0
-219 -177 -262 222 0
-219 -178 -262 222 0
-220 -177 -261 222 0
-220 -178 -261 222 0
-220 -177 -262 222 0
-220 -178 -262 221 0
-261 -219 -303 264 0
-261 -220 -303 264 0
-261 -219 -304 264 0
-261 -220 -304 264 0
-262 -219 -303 264 0
-262 -220 -303 264 0
-262 -219 -304 264 0
-262 -220 -304 263 0
-303 -261 306 0
-303 -262 306 0
-304 -261 306 0
-304 -262 305 0
-11 -53 14 0
-11 -54 14 0
-12 -53 14 0
-12 -54 13 0
-53 -11 -95 56 0
-53 -12 -95 56 0
-53 -11 -96 56 0
-53 -12 -96 56 0
-54 -11 -95 56 0
-54 -12 -95 56 0
-54 -11 -96 56 0
-54 -12 -96 55 0
-95 -53 -137 98 0
-95 -54 -137 98 0
-95 -53 -138 98 0
-95 -54 -138 98 0
-96 -53 -137 98 0
-96 -54 -137 98 0
-96 -53 -138 98 0
-96 -54 -138 97 0
-137 -95 -179 140 0
-137 -96 -179 140 0
-137 -95 -180 140 0
-137 -96 -180 140 0
-138 -95 -179 140 0
-138 -96 -179 140 0
-138 -95 -180 140 0
-138 -96 -180 139 0
-179 -137 -221 182 0
-179 -138 -221 182 0
-179 -137 -222 182 0
-179 -138 -222 182 0
-180 -137 -221 182 0
-180 -138 -221 182 0
-180 -137 -222 182 0
-180 -138 -222 181 0
-221 -179 -263 224 0
-221 -180 -263 224 0
-221 -179 -264 224 0
-221 -180 -264 224 0
-222 -179 -263 224 0
-222 -180 -263 224 0
-222 -179 -264 224 0
-222 -180 -264 223 0
-263 -221 -305 266 0
-263 -222 -305 266 0
-263 -221 -306 266 0
-263 -222 -306 266 0
-264 -221 -305 266 0
-264 -222 -305 266 0
-264 -221 -306 266 0
-264 -222 -306 265 0
-305 -263 308 0
-305 -264 308 0
-306 -263 308 0
-306 -264 307 0
-13 -55 16 0
-13 -56 16 0
-14 -55 16 0
-14 -56 15 0
-55 -13 -97 58 0
-55 -14 -97 58 0
-55 -13 -98 58 0
-55 -14 -98 58 0
-56 -13 -97 58 0
-56 -14 -97 58 0
-56 -13 -98 58 0
-56 -14 -98 57 0
-97 -55 -139 100 0
-97 -56 -139 100 0
-97 -55 -140 100 0
-97 -56 -140 100 0
-98 -55 -139 100 0
-98 -56 -139 100 0
-98 -55 -140 100 0
-98 -56 -140 99 0
-139 -97 -181 142 0
-139 -98 -181 142 0
-139 -97 -182 142 0
-139 -98 -182 142 0
-140 -97 -181 142 0
-140 -98 -181 142 0
-140 -97 -182 142 0
-140 -98 -182 141 0
-181 -139 -223 184 0
-181 -140 -223 184 0
-181 -139 -224 184 0
-181 -140 -224 184 0
-182 -139 -223 184 0
-182 -140 -223 184 0
-182 -139 -224 184 0
-182 -140 -224 183 0
-223 -181 -265 226 0
-223 -182 -265 226 0
-223 -181 -266 226 0
-223 -182 -266 226 0
-224 -181 -265 226 0
-224 -182 -265 226 0
-224 -181 -266 226 0
-224 -182 -266 225 0
-265 -223 -307 268 0
-265 -224 -307 268 0
-265 -223 -308 268 0
-265 -224 -308 268 0
-266 -223 -307 268 0
-266 -224 -307 268 0
-266 -223 -308 268 0
-266 -224 -308 267 0
-307 -265 310 0
-307 -266 310 0
-308 -265 310 0
-308 -266 309 0
-15 -57 18 0
-15 -58 18 0
-16 -57 18 0
-16 -58 17 0
-57 -15 -99 60 0
-57 -16 -99 60 0
-57 -15 -100 60 0
-57 -16 -100 60 0
-58 -15 -99 60 0
-58 -16 -99 60 0
-58 -15 -100 60 0
-58 -16 -100 59 0
-99 -57 -141 102 0
-99 -58 -141 102 0
-99 -57 -142 102 0
-99 -58 -142 102 0
-100 -57 -141 102 0
-100 -58 -141 102 0
-100 -57 -142 102 0
-100 -58 -142 101 0
-141 -99 -183 144 0
-141 -100 -183 144 0
-141 -99 -184 144 0
-141 -100 -184 144 0
-142 -99 -183 144 0
-142 -100 -183 144 0
-142 -99 -184 144 0
-142 -100 -184 143 0
-183 -141 -225 186 0
-183 -142 -225 186 0
-183 -141 -226 186 0
-183 -142 -226 186 0
-184 -141 -225 186 0
-184 -142 -225 186 0
-184 -141 -226 186 0
-184 -142 -226 185 0
-225 -183 -267 228 0
-225 -184 -267 228 0
-225 -183 -268 228 0
-225 -184 -268 228 0
-226 -183 -267 228 0
-226 -184 -267 228 0
-226 -183 -268 228 0
-226 -184 -268 227 0
-267 -225 -309 270 0
-267 -226 -309 270 0
-267 -225 -310 270 0
-267 -226 -310 270 0
-268 -225 -309 270 0
-268 -226 -309 270 0
-268 -225 -310 270 0
-268 -226 -310 269 0
-309 -267 312 0
-309 -268 312 0
-310 -267 312 0
-310 -268 311 0
-17 -59 20 0
-17 -60 20 0
-18 -59 20 0
-18 -60 19 0
-59 -17 -101 62 0
-59 -18 -101 62 0
-59 -17 -102 62 0
-59 -18 -102 62 0
-60 -17 -101 62 0
-60 -18 -101 62 0
-60 -17 -102 62 0
-60 -18 -102 61 0
-101 -59 -143 104 0
-101 -60 -143 104 0
-101 -59 -144 104 0
-101 -60 -144 104 0
-102 -59 -143 104 0
-102 -60 -143 104 0
-102 -59 -144 104 0
-102 -60 -144 103 0
-143 -101 -185 146 0
-143 -102 -185 146 0
-143 -101 -186 146 0
-143 -102 -186 146 0
-144 -101 -185 146 0
-144 -102 -185 146 0
-144 -101 -186 146 0
-144 -102 -186 145 0
-185 -143 -227 188 0
-185 -144 -227 188 0
-185 -143 -228 188 0
-185 -144 -228 188 0
-186 -143 -227 188 0
-186 -144 -227 188 0
-186 -143 -228 188 0
-186 -144 -228 187 0
-227 -185 -269 230 0
-227 -186 -269 230 0
-227 -185 -270 230 0
-227 -186 -270 230 0
-228 -185 -269 230 0
-228 -186 -269 230 0
-228 -185 -270 230 0
-228 -186 -270 229 0
-269 -227 -311 272 0
-269 -228 -311 272 0
-269 -227 -312 272 0
-269 -228 -312 272 0
-270 -227 -311 272 0
-270 -228 -311 272 0
-270 -227 -312 272 0
-270 -228 -312 271 0
-311 -269 314 0
-311 -270 314 0
-312 -269 314 0
-312 -270 313 0
-19 -61 22 0
-19 -62 22 0
-20 -61 22 0
-20 -62 21 0
-61 -19 -103 64 0
-61 -20 -103 64 0
-61 -19 -104 64 0
-61 -20 -104 64 0
-62 -19 -103 64 0
-62 -20 -103 64 0
-62 -19 -104 64 0
-62 -20 -104 63 0
-103 -61 -145 106 0
-103 -62 -145 106 0
-103 -61 -146 106 0
-103 -62 -146 106 0
-104 -61 -145 106 0
-104 -62 -145 106 0
-104 -61 -146 106 0
-104 -62 -146 105 0
-145 -103 -187 148 0
-145 -104 -187 148 0
-145 -103 -188 148 0
-145 -104 -188 148 0
-146 -103 -187 148 0
-146 -104 -187 148 0
-146 -103 -188 148 0
-146 -104 -188 147 0
-187 -145 -229 190 0
-187 -146 -229 190 0
-187 -145 -230 190 0
-187 -146 -230 190 0
-188 -145 -229 190 0
-188 -146 -229 190 0
-188 -145 -230 190 0
-188 -146 -230 189 0
-229 -187 -271 232 0
-229 -188 -271 232 0
-229 -187 -272 232 0
-229 -188 -272 232 0
-230 -187 -271 232 0
-230 -188 -271 232 0
-230 -187 -272 232 0
-230 -188 -272 231 0
-271 -229 -313 274 0
-271 -230 -313 274 0
-271 -229 -314 274 0
-271 -230 -314 274 0
-272 -229 -313 274 0
-272 -230 -313 274 0
-272 -229 -314 274 0
-272 -230 -314 273 0
-313 -271 316 0
-313 -272 316 0
-314 -271 316 0
-314 -272 315 0
-21 -63 24 0
-21 -64 24 0
-22 -63 24 0
-22 -64 23 0
-63 -21 -105 66 0
-63 -22 -105 66 0
-63 -21 -106 66 0
-63 -22 -106 66 0
-64 -21 -105 66 0
-64 -22 -105 66 0
-64 -21 -106 66 0
-64 -22 -106 65 0
-105 -63 -147 108 0
-105 -64 -147 108 0
-105 -63 -148 108 0
-105 -64 -148 108 0
-106 -63 -147 108 0
-106 -64 -147 108 0
-106 -63 -148 108 0
-106 -64 -148 107 0
-147 -105 -189 150 0
-147 -106 -189 150 0
-147 -105 -190 150 0
-147 -106 -190 150 0
-148 -105 -189 150 0
-148 -106 -189 150 0
-148 -105 -190 150 0
-148 -106 -190 149 0
-189 -147 -231 192 0
-189 -148 -231 192 0
-189 -147 -232 192 0
-189 -148 -232 192 0
-190 -147 -231 192 0
-190 -148 -231 192 0
-190 -147 -232 192 0
-190 -148 -232 191 0
-231 -189 -273 234 0
-231 -190 -273 234 0
-231 -189 -274 234 0
-231 -190 -274 234 0
-232 -189 -273 234 0
-232 -190 -273 234 0
-232 -189 -274 234 0
-232 -190 -274 233 0
-273 -231 -315 276 0
-273 -232 -315 276 0
-273 -231 -316 276 0
-273 -232 -316 276 0
-274 -231 -315 276 0
-274 -232 -315 276 0
-274 -231 -316 276 0
-274 -232 -316 275 0
-315 -273 318 0
-315 -274 318 0
-316 -273 318 0
-316 -274 317 0
-23 -65 26 0
-23 -66 26 0
-24 -65 26 0
-24 -66 25 0
-65 -23 -107 68 0
-65 -24 -107 68 0
-65 -23 -108 68 0
-65 -24 -108 68 0
-66 -23 -107 68 0
-66 -24 -107 68 0
-66 -23 -108 68 0
-66 -24 -108 67 0
-107 -65 -149 110 0
-107 -66 -149 110 0
-107 -65 -150 110 0
-107 -66 -150 110 0
-108 -65 -149 110 0
-108 -66 -149 110 0
-108 -65 -150 110 0
-108 -66 -150 109 0
-149 -107 -191 152 0
-149 -108 -191 152 0
-149 -107 -192 152 0
-149 -108 -192 152 0
-150 -107 -191 152 0
-150 -108 -191 152 0
-150 -107 -192 152 0
-150 -108 -192 151 0
-191 -149 -233 194 0
-191 -150 -233 194 0
-191 -149 -234 194 0
-191 -150 -234 194 0
-192 -149 -233 194 0
-192 -150 -233 194 0
-192 -149 -234 194 0
-192 -150 -234 193 0
-233 -191 -275 236 0
-233 -192 -275 236 0
-233 -191 -276 236 0
-233 -192 -276 236 0
-234 -191 -275 236 0
-234 -192 -275 236 0
-234 -191 -276 236 0
-234 -192 -276 235 0
-275 -233 -317 278 0
-275 -234 -317 278 0
-275 -233 -318 278 0
-275 -234 -318 278 0
-276 -233 -317 278 0
-276 -234 -317 278 0
-276 -233 -318 278 0
-276 -234 -318 277 0
-317 -275 320 0
-317 -276 320 0
-318 -275 320 0
-318 -276 319 0
-25 -67 28 0
-25 -68 28 0
-26 -67 28 0
-26 -68 27 0
-67 -25 -109 70 0
-67 -26 -109 70 0
-67 -25 -110 70 0
-67 -26 -110 70 0
-68 -25 -109 70 0
-68 -26 -109 70 0
-68 -25 -110 70 0
-68 -26 -110 69 0
-109 -67 -151 112 0
-109 -68 -151 112 0
-109 -67 -152 112 0
-109 -68 -152 112 0
-110 -67 -151 112 0
-110 -68 -151 112 0
-110 -67 -152 112 0
-110 -68 -152 111 0
-151 -109 -193 154 0
-151 -110 -193 154 0
-151 -109 -194 154 0
-151 -110 -194 154 0
-152 -109 -193 154 0
-152 -110 -193 154 0
-152 -109 -194 154 0
-152 -110 -194 153 0
-193 -151 -235 196 0
-193 -152 -235 196 0
-193 -151 -236 196 0
-193 -152 -236 196 0
-194 -151 -235 196 0
-194 -152 -235 196 0
-194 -151 -236 196 0
-194 -152 -236 195 0
-235 -193 -277 238 0
-235 -194 -277 238 0
-235 -193 -278 238 0
-235 -194 -278 238 0
-236 -193 -277 238 0
-236 -194 -277 238 0
-236 -193 -278 238 0
-236 -194 -278 237 0
-277 -235 -319 280 0
-277 -236 -319 280 0
-277 -235 -320 280 0
-277 -236 -320 280 0
-278 -235 -319 280 0
-278 -236 -319 280 0
-278 -235 -320 280 0
-278 -236 -320 279 0
-319 -277 322 0
-319 -278 322 0
-320 -277 322 0
-320 -278 321 0
-27 -69 30 0
-27 -70 30 0
-28 -69 30 0
-28 -70 29 0
-69 -27 -111 72 0
-69 -28 -111 72 0
-69 -27 -112 72 0
-69 -28 -112 72 0
-70 -27 -111 72 0
-70 -28 -111 72 0
-70 -27 -112 72 0
-70 -28 -112 71 0
-111 -69 -153 114 0
-111 -70 -153 114 0
-111 -69 -154 114 0
-111 -70 -154 114 0
-112 -69 -153 114 0
-112 -70 -153 114 0
-112 -69 -154 114 0
-112 -70 -154 113 0
-153 -111 -195 156 0
-153 -112 -195 156 0
-153 -111 -196 156 0
-153 -112 -196 156 0
-154 -111 -195 156 0
-154 -112 -195 156 0
-154 -111 -196 156 0
-154 -112 -196 155 0
-195 -153 -237 198 0
-195 -154 -237 198 0
-195 -153 -238 198 0
-195 -154 -238 198 0
-196 -153 -237 198 0
-196 -154 -237 198 0
-196 -153 -238 198 0
-196 -154 -238 197 0
-237 -195 -279 240 0
-237 -196 -279 240 0
-237 -195 -280 240 0
-237 -196 -280 240 0
-238 -195 -279 240 0
-238 -196 -279 240 0
-238 -195 -280 240 0
-238 -196 -280 239 0
-279 -237 -321 282 0
-279 -238 -321 282 0
-279 -237 -322 282 0
-279 -238 -322 282 0
-280 -237 -321 282 0
-280 -238 -321 282 0
-280 -237 -322 282 0
-280 -238 -322 281 0
-321 -279 324 0
-321 -280 324 0
-322 -279 324 0
-322 -280 323 0
-29 -71 32 0
-29 -72 32 0
-30 -71 32 0
-30 -72 31 0
-71 -29 -113 74 0
-71 -30 -113 74 0
-71 -29 -114 74 0
-71 -30 -114 74 0
-72 -29 -113 74 0
-72 -30 -113 74 0
-72 -29 -114 74 0
-72 -30 -114 73 0
-113 -71 -155 116 0
-113 -72 -155 116 0
-113 -71 -156 116 0
-113 -72 -156 116 0
-114 -71 -155 116 0
-114 -72 -155 116 0
-114 -71 -156 116 0
-114 -72 -156 115 0
-155 -113 -197 158 0
-155 -114 -197 158 0
-155 -113 -198 158 0
-155 -114 -198 158 0
-156 -113 -197 158 0
-156 -114 -197 158 0
-156 -113 -198 158 0
-156 -114 -198 157 0
-197 -155 -239 200 0
-197 -156 -239 200 0
-197 -155 -240 200 0
-197 -156 -240 200 0
-198 -155 -239 200 0
-198 -156 -239 200 0
-198 -155 -240 200 0
-198 -156 -240 199 0
-239 -197 -281 242 0
-239 -198 -281 242 0
-239 -197 -282 242 0
-239 -198 -282 242 0
-240 -197 -281 242 0
-240 -198 -281 242 0
-240 -197 -282 242 0
-240 -198 -282 241 0
-281 -239 -323 284 0
-281 -240 -323 284 0
-281 -239 -324 284 0
-281 -240 -324 284 0
-282 -239 -323 284 0
-282 -240 -323 284 0
-282 -239 -324 284 0
-282 -240 -324 283 0
-323 -281 326 0
-323 -282 326 0
-324 -281 326 0
-324 -282 325 0
-31 -73 34 0
-31 -74 34 0
-32 -73 34 0
-32 -74 33 0
-73 -31 -115 76 0
-73 -32 -115 76 0
-73 -31 -116 76 0
-73 -32 -116 76 0
-74 -31 -115 76 0
-74 -32 -115 76 0
-74 -31 -116 76 0
-74 -32 -116 75 0
-115 -73 -157 118 0
-115 -74 -157 118 0
-115 -73 -158 118 0
-115 -74 -158 118 0
-116 -73 -157 118 0
-116 -74 -157 118 0
-116 -73 -158 118 0
-116 -74 -158 117 0
-157 -115 -199 160 0
-157 -116 -199 160 0
-157 -115 -200 160 0
-157 -116 -200 160 0
-158 -115 -199 160 0
-158 -116 -199 160 0
-158 -115 -200 160 0
-158 -116 -200 159 0
-199 -157 -241 202 0
-199 -158 -241 202 0
-199 -157 -242 202 0
-199 -158 -242 202 0
-200 -157 -241 202 0
-200 -158 -241 202 0
-200 -157 -242 202 0
-200 -158 -242 201 0
-241 -199 -283 244 0
-241 -200 -283 244 0
-241 -199 -284 244 0
-241 -200 -284 244 0
-242 -199 -283 244 0
-242 -200 -283 244 0
-242 -199 -284 244 0
-242 -200 -284 243 0
-283 -241 -325 286 0
-283 -242 -325 286 0
-283 -241 -326 286 0
-283 -242 -326 286 0
-284 -241 -325 286 0
-284 -242 -325 286 0
-284 -241 -326 286 0
-284 -242 -326 285 0
-325 -283 328 0
-325 -284 328 0
-326 -283 328 0
-326 -284 327 0
-33 -75 36 0
-33 -76 36 0
-34 -75 36 0
-34 -76 35 0
-75 -33 -117 78 0
-75 -34 -117 78 0
-75 -33 -118 78 0
-75 -34 -118 78 0
-76 -33 -117 78 0
-76 -34 -117 78 0
-76 -33 -118 78 0
-76 -34 -118 77 0
-117 -75 -159 120 0
-117 -76 -159 120 0
-117 -75 -160 120 0
-117 -76 -160 120 0
-118 -75 -159 120 0
-118 -76 -159 120 0
-118 -75 -160 120 0
-118 -76 -160 119 0
-159 -117 -201 162 0
-159 -118 -201 162 0
-159 -117 -202 162 0
-159 -118 -202 162 0
-160 -117 -201 162 0
-160 -118 -201 162 0
-160 -117 -202 162 0
-160 -118 -202 161 0
-201 -159 -243 204 0
-201 -160 -243 204 0
-201 -159 -244 204 0
-201 -160 -244 204 0
-202 -159 -243 204 0
-202 -160 -243 204 0
-202 -159 -244 204 0
-202 -160 -244 203 0
-243 -201 -285 246 0
-243 -202 -285 246 0
-243 -201 -286 246 0
-243 -202 -286 246 0
-244 -201 -285 246 0
-244 -202 -285 246 0
-244 -201 -286 246 0
-244 -202 -286 245 0
-285 -243 -327 288 0
-285 -244 -327 288 0
-285 -243 -328 288 0
-285 -244 -328 288 0
-286 -243 -327 288 0
-286 -244 -327 288 0
-286 -243 -328 288 0
-286 -244 -328 287 0
-327 -285 330 0
-327 -286 330 0
-328 -285 330 0
-328 -286 329 0
-35 -77 38 0
-35 -78 38 0
-36 -77 38 0
-36 -78 37 0
-77 -35 -119 80 0
-77 -36 -119 80 0
-77 -35 -120 80 0
-77 -36 -120 80 0
-78 -35 -119 80 0
-78 -36 -119 80 0
-78 -35 -120 80 0
-78 -36 -120 79 0
-119 -77 -161 122 0
-119 -78 -161 122 0
-119 -77 -162 122 0
-119 -78 -162 122 0
-120 -77 -161 122 0
-120 -78 -161 122 0
-120 -77 -162 122 0
-120 -78 -162 121 0
-161 -119 -203 164 0
-161 -120 -203 164 0
-161 -119 -204 164 0
-161 -120 -204 164 0
-162 -119 -203 164 0
-162 -120 -203 164 0
-162 -119 -204 164 0
-162 -120 -204 163 0
-203 -161 -245 206 0
-203 -162 -245 206 0
-203 -161 -246 206 0
-203 -162 -246 206 0
-204 -161 -245 206 0
-204 -162 -245 206 0
-204 -161 -246 206 0
-204 -162 -246 205 0
-245 -203 -287 248 0
-245 -204 -287 248 0
-245 -203 -288 248 0
-245 -204 -288 248 0
-246 -203 -287 248 0
-246 -204 -287 248 0
-246 -203 -288 248 0
-246 -204 -288 247 0
-287 -245 -329 290 0
-287 -246 -329 290 0
-287 -245 -330 290 0
-287 -246 -330 290 0
-288 -245 -329 290 0
-288 -246 -329 290 0
-288 -245 -330 290 0
-288 -246 -330 289 0
-329 -287 332 0
-329 -288 332 0
-330 -287 332 0
-330 -288 331 0
-37 -79 40 0
-37 -80 40 0
-38 -79 40 0
-38 -80 39 0
-79 -37 -121 82 0
-79 -38 -121 82 0
-79 -37 -122 82 0
-79 -38 -122 82 0
-80 -37 -121 82 0
-80 -38 -121 82 0
-80 -37 -122 82 0
-80 -38 -122 81 0
-121 -79 -163 124 0
-121 -80 -163 124 0
-121 -79 -164 124 0
-121 -80 -164 124 0
-122 -79 -163 124 0
-122 -80 -163 124 0
-122 -79 -164 124 0
-122 -80 -164 123 0
-163 -121 -205 166 0
-163 -122 -205 166 0
-163 -121 -206 166 0
-163 -122 -206 166 0
-164 -121 -205 166 0
-164 -122 -205 166 0
-164 -121 -206 166 0
-164 -122 -206 165 0
-205 -163 -247 208 0
-205 -164 -247 208 0
-205 -163 -248 208 0
-205 -164 -248 208 0
-206 -163 -247 208 0
-206 -164 -247 208 0
-206 -163 -248 208 0
-206 -164 -248 207 0
-247 -205 -289 250 0
-247 -206 -289 250 0
-247 -205 -290 250 0
-247 -206 -290 250 0
-248 -205 -289 250 0
-248 -206 -289 250 0
-248 -205 -290 250 0
-248 -206 -290 249 0
-289 -247 -331 292 0
-289 -248 -331 292 0
-289 -247 -332 292 0
-289 -248 -332 292 0
-290 -247 -331 292 0
-290 -248 -331 292 0
-290 -247 -332 292 0
-290 -248 -332 291 0
-331 -289 334 0
-331 -290 334 0
-332 -289 334 0
-332 -290 333 0
-39 -81 42 0
-39 -82 42 0
-40 -81 42 0
-40 -82 41 0
-81 -39 -123 84 0
-81 -40 -123 84 0
-81 -39 -124 84 0
-81 -40 -124 84 0
-82 -39 -123 84 0
-82 -40 -123 84 0
-82 -39 -124 84 0
-82 -40 -124 83 0
-123 -81 -165 126 0
-123 -82 -165 126 0
-123 -81 -166 126 0
-123 -82 -166 126 0
-124 -81 -165 126 0
-124 -82 -165 126 0
-124 -81 -166 126 0
-124 -82 -166 125 0
-165 -123 -207 168 0
-165 -124 -207 168 0
-165 -123 -208 168 0
-165 -124 -208 168 0
-166 -123 -207 168 0
-166 -124 -207 168 0
-166 -123 -208 168 0
-166 -124 -208 167 0
-207 -165 -249 210 0
-207 -166 -249 210 0
-207 -165 -250 210 0
-207 -166 -250 210 0
-208 -165 -249 210 0
-208 -166 -249 210 0
-208 -165 -250 210 0
-208 -166 -250 209 0
-249 -207 -291 252 0
-249 -208 -291 252 0
-249 -207 -292 252 0
-249 -208 -292 252 0
-250 -207 -291 252 0
-250 -208 -291 252 0
-250 -207 -292 252 0
-250 -208 -292 251 0
-291 -249 -333 294 0
-291 -250 -333 294 0
-291 -249 -334 294 0
-291 -250 -334 294 0
-292 -249 -333 294 0
-292 -250 -333 294 0
-292 -249 -334 294 0
-292 -250 -334 293 0
-333 -291 336 0
-333 -292 336 0
-334 -291 336 0
-334 -292 335 0
338 339 340 341 342 343 344 345 346 347 348 349 350 351 352 353 354 355 356 357 0
360 361 -338 0
1 -360 0
3 -360 0
2 -361 0
4 -361 0
402 403 -338 0
43 -402 0
45 -402 0
44 -403 0
46 -403 0
444 445 -338 0
85 -444 0
87 -444 0
86 -445 0
88 -445 0
486 487 -338 0
127 -486 0
129 -486 0
128 -487 0
130 -487 0
528 529 -338 0
169 -528 0
171 -528 0
170 -529 0
172 -529 0
570 571 -338 0
211 -570 0
213 -570 0
212 -571 0
214 -571 0
612 613 -338 0
253 -612 0
255 -612 0
254 -613 0
256 -613 0
654 655 -338 0
295 -654 0
297 -654 0
296 -655 0
298 -655 0
362 363 -339 0
1 -362 0
5 -362 0
2 -363 0
6 -363 0
404 405 -339 0
43 -404 0
47 -404 0
44 -405 0
48 -405 0
446 447 -339 0
85 -446 0
89 -446 0
86 -447 0
90 -447 0
488 489 -339 0
127 -488 0
131 -488 0
128 -489 0
132 -489 0
530 531 -339 0
169 -530 0
173 -530 0
170 -531 0
174 -531 0
572 573 -339 0
211 -572 0
215 -572 0
212 -573 0
216 -573 0
614 615 -339 0
253 -614 0
257 -614 0
254 -615 0
258 -615 0
656 657 -339 0
295 -656 0
299 -656 0
296 -657 0
300 -657 0
364 365 -340 0
1 -364 0
7 -364 0
2 -365 0
8 -365 0
406 407 -340 0
43 -406 0
49 -406 0
44 -407 0
50 -407 0
448 449 -340 0
85 -448 0
91 -448 0
86 -449 0
92 -449 0
490 491 -340 0
127 -490 0
133 -490 0
128 -491 0
134 -491 0
532 533 -340 0
169 -532 0
175 -532 0
170 -533 0
176 -533 0
574 575 -340 0
211 -574 0
217 -574 0
212 -575 0
218 -575 0
616 617 -340 0
253 -616 0
259 -616 0
254 -617 0
260 -617 0
658 659 -340 0
295 -658 0
301 -658 0
296 -659 0
302 -659 0
366 367 -341 0
1 -366 0
9 -366 0
2 -367 0
10 -367 0
408 409 -341 0
43 -408 0
51 -408 0
44 -409 0
52 -409 0
450 451 -341 0
85 -450 0
93 -450 0
86 -451 0
94 -451 0
492 493 -341 0
127 -492 0
135 -492 0
128 -493 0
136 -493 0
534 535 -341 0
169 -534 0
177 -534 0
170 -535 0
178 -535 0
576 577 -341 0
211 -576 0
219 -576 0
212 -577 0
220 -577 0
618 619 -341 0
253 -618 0
261 -618 0
254 -619 0
262 -619 0
660 661 -341 0
295 -660 0
303 -660 0
296 -661 0
304 -661 0
368 369 -342 0
1 -368 0
11 -368 0
2 -369 0
12 -369 0
410 411 -342 0
43 -410 0
53 -410 0
44 -411 0
54 -411 0
452 453 -342 0
85 -452 0
95 -452 0
86 -453 0
96 -453 0
494 495 -342 0
127 -494 0
137 -494 0
128 -495 0
138 -495 0
536 537 -342 0
169 -536 0
179 -536 0
170 -537 0
180 -537 0
578 579 -342 0
211 -578 0
221 -578 0
212 -579 0
222 -579 0
620 621 -342 0
253 -620 0
263 -620 0
254 -621 0
264 -621 0
662 663 -342 0
295 -662 0
305 -662 0
296 -663 0
306 -663 0
370 371 -343 0
1 -370 0
13 -370 0
2 -371 0
14 -371 0
412 413 -343 0
43 -412 0
55 -412 0
44 -413 0
56 -413 0
454 455 -343 0
85 -454 0
97 -454 0
86 -455 0
98 -455 0
496 497 -343 0
127 -496 0
139 -496 0
128 -497 0
140 -497 0
538 539 -343 0
169 -538 0
181 -538 0
170 -539 0
182 -539 0
580 581 -343 0
211 -580 0
223 -580 0
212 -581 0
224 -581 0
622 623 -343 0
253 -622 0
265 -622 0
254 -623 0
266 -623 0
664 665 -343 0
295 -664 0
307 -664 0
296 -665 0
308 -665 0
372 373 -344 0
1 -372 0
15 -372 0
2 -373 0
16 -373 0
414 415 -344 0
43 -414 0
57 -414 0
44 -415 0
58 -415 0
456 457 -344 0
85 -456 0
99 -456 0
86 -457 0
100 -457 0
498 499 -344 0
127 -498 0
141 -498 0
128 -499 0
142 -499 0
540 541 -344 0
169 -540 0
183 -540 0
170 -541 0
184 -541 0
582 583 -344 0
211 -582 0
225 -582 0
212 -583 0
226 -583 0
624 625 -344 0
253 -624 0
267 -624 0
254 -625 0
268 -625 0
666 667 -344 0
295 -666 0
309 -666 0
296 -667 0
310 -667 0
374 375 -345 0
1 -374 0
17 -374 0
2 -375 0
18 -375 0
416 417 -345 0
43 -416 0
59 -416 0
44 -417 0
60 -417 0
458 459 -345 0
85 -458 0
101 -458 0
86 -459 0
102 -459 0
500 501 -345 0
127 -500 0
143 -500 0
128 -501 0
144 -501 0
542 543 -345 0
169 -542 0
185 -542 0
170 -543 0
186 -543 0
584 585 -345 0
211 -584 0
227 -584 0
212 -585 0
228 -585 0
626 627 -345 0
253 -626 0
269 -626 0
254 -627 0
270 -627 0
668 669 -345 0
295 -668 0
311 -668 0
296 -669 0
312 -669 0
376 377 -346 0
1 -376 0
19 -376 0
2 -377 0
20 -377 0
418 419 -346 0
43 -418 0
61 -418 0
44 -419 0
62 -419 0
460 461 -346 0
85 -460 0
103 -460 0
86 -461 0
104 -461 0
502 503 -346 0
127 -502 0
145 -502 0
128 -503 0
146 -503 0
544 545 -346 0
169 -544 0
187 -544 0
170 -545 0
188 -545 0
586 587 -346 0
211 -586 0
229 -586 0
212 -587 0
230 -587 0
628 629 -346 0
253 -628 0
271 -628 0
254 -629 0
272 -629 0
670 671 -346 0
295 -670 0
313 -670 0
296 -671 0
314 -671 0
378 379 -347 0
1 -378 0
21 -378 0
2 -379 0
22 -379 0
420 421 -347 0
43 -420 0
63 -420 0
44 -421 0
64 -421 0
462 463 -347 0
85 -462 0
105 -462 0
86 -463 0
106 -463 0
504 505 -347 0
127 -504 0
147 -504 0
128 -505 0
148 -505 0
546 547 -347 0
169 -546 0
189 -546 0
170 -547 0
190 -547 0
588 589 -347 0
211 -588 0
231 -588 0
212 -589 0
232 -589 0
630 631 -347 0
253 -630 0
273 -630 0
254 -631 0
274 -631 0
672 673 -347 0
295 -672 0
315 -672 0
296 -673 0
316 -673 0
380 381 -348 0
1 -380 0
23 -380 0
2 -381 0
24 -381 0
422 423 -348 0
43 -422 0
65 -422 0
44 -423 0
66 -423 0
464 465 -348 0
85 -464 0
107 -464 0
86 -465 0
108 -465 0
506 507 -348 0
127 -506 0
149 -506 0
128 -507 0
150 -507 0
548 549 -348 0
169 -548 0
191 -548 0
170 -549 0
192 -549 0
590 591 -348 0
211 -590 0
233 -590 0
212 -591 0
234 -591 0
632 633 -348 0
253 -632 0
275 -632 0
254 -633 0
276 -633 0
674 675 -348 0
295 -674 0
317 -674 0
296 -675 0
318 -675 0
382 383 -349 0
1 -382 0
25 -382 0
2 -383 0
26 -383 0
424 425 -349 0
43 -424 0
67 -424 0
44 -425 0
68 -425 0
466 467 -349 0
85 -466 0
109 -466 0
86 -467 0
110 -467 0
508 509 -349 0
127 -508 0
151 -508 0
128 -509 0
152 -509 0
550 551 -349 0
169 -550 0
193 -550 0
170 -551 0
194 -551 0
592 593 -349 0
211 -592 0
235 -592 0
212 -593 0
236 -593 0
634 635 -349 0
253 -634 0
277 -634 0
254 -635 0
278 -635 0
676 677 -349 0
295 -676 0
319 -676 0
296 -677 0
320 -677 0
384 385 -350 0
1 -384 0
27 -384 0
2 -385 0
28 -385 0
426 427 -350 0
43 -426 0
69 -426 0
44 -427 0
70 -427 0
468 469 -350 0
85 -468 0
111 -468 0
86 -469 0
112 -469 0
510 511 -350 0
127 -510 0
153 -510 0
128 -511 0
154 -511 0
552 553 -350 0
169 -552 0
195 -552 0
170 -553 0
196 -553 0
594 595 -350 0
211 -594 0
237 -594 0
212 -595 0
238 -595 0
636 637 -350 0
253 -636 0
279 -636 0
254 -637 0
280 -637 0
678 679 -350 0
295 -678 0
321 -678 0
296 -679 0
322 -679 0
386 387 -351 0
1 -386 0
29 -386 0
2 -387 0
30 -387 0
428 429 -351 0
43 -428 0
71 -428 0
44 -429 0
72 -429 0
470 471 -351 0
85 -470 0
113 -470 0
86 -471 0
114 -471 0
512 513 -351 0
127 -512 0
155 -512 0
128 -513 0
156 -513 0
554 555 -351 0
169 -554 0
197 -554 0
170 -555 0
198 -555 0
596 597 -351 0
211 -596 0
239 -596 0
212 -597 0
240 -597 0
638 639 -351 0
253 -638 0
281 -638 0
254 -639 0
282 -639 0
680 681 -351 0
295 -680 0
323 -680 0
296 -681 0
324 -681 0
388 389 -352 0
1 -388 0
31 -388 0
2 -389 0
32 -389 0
430 431 -352 0
43 -430 0
73 -430 0
44 -431 0
74 -431 0
472 473 -352 0
85 -472 0
115 -472 0
86 -473 0
116 -473 0
514 515 -352 0
127 -514 0
157 -514 0
128 -515 0
158 -515 0
556 557 -352 0
169 -556 0
199 -556 0
170 -557 0
200 -557 0
598 599 -352 0
211 -598 0
241 -598 0
212 -599 0
242 -599 0
640 641 -352 0
253 -640 0
283 -640 0
254 -641 0
284 -641 0
682 683 -352 0
295 -682 0
325 -682 0
296 -683 0
326 -683 0
390 391 -353 0
1 -390 0
33 -390 0
2 -391 0
34 -391 0
432 433 -353 0
43 -432 0
75 -432 0
44 -433 0
76 -433 0
474 475 -353 0
85 -474 0
117 -474 0
86 -475 0
118 -475 0
516 517 -353 0
127 -516 0
159 -516 0
128 -517 0
160 -517 0
558 559 -353 0
169 -558 0
201 -558 0
170 -559 0
202 -559 0
600 601 -353 0
211 -600 0
243 -600 0
212 -601 0
244 -601 0
642 643 -353 0
253 -642 0
285 -642 0
254 -643 0
286 -643 0
684 685 -353 0
295 -684 0
327 -684 0
296 -685 0
328 -685 0
392 393 -354 0
1 -392 0
35 -392 0
2 -393 0
36 -393 0
434 435 -354 0
43 -434 0
77 -434 0
44 -435 0
78 -435 0
476 477 -354 0
85 -476 0
119 -476 0
86 -477 0
120 -477 0
518 519 -354 0
127 -518 0
161 -518 0
128 -519 0
162 -519 0
560 561 -354 0
169 -560 0
203 -560 0
170 -561 0
204 -561 0
602 603 -354 0
211 -602 0
245 -602 0
212 -603 0
246 -603 0
644 645 -354 0
253 -644 0
287 -644 0
254 -645 0
288 -645 0
686 687 -354 0
295 -686 0
329 -686 0
296 -687 0
330 -687 0
394 395 -355 0
1 -394 0
37 -394 0
2 -395 0
38 -395 0
436 437 -355 0
43 -436 0
79 -436 0
44 -437 0
80 -437 0
478 479 -355 0
85 -478 0
121 -478 0
86 -479 0
122 -479 0
520 521 -355 0
127 -520 0
163 -520 0
128 -521 0
164 -521 0
562 563 -355 0
169 -562 0
205 -562 0
170 -563 0
206 -563 0
604 605 -355 0
211 -604 0
247 -604 0
212 -605 0
248 -605 0
646 647 -355 0
253 -646 0
289 -646 0
254 -647 0
290 -647 0
688 689 -355 0
295 -688 0
331 -688 0
296 -689 0
332 -689 0
396 397 -356 0
1 -396 0
39 -396 0
2 -397 0
40 -397 0
438 439 -356 0
43 -438 0
81 -438 0
44 -439 0
82 -439 0
480 481 -356 0
85 -480 0
123 -480 0
86 -481 0
124 -481 0
522 523 -356 0
127 -522 0
165 -522 0
128 -523 0
166 -523 0
564 565 -356 0
169 -564 0
207 -564 0
170 -565 0
208 -565 0
606 607 -356 0
211 -606 0
249 -606 0
212 -607 0
250 -607 0
648 649 -356 0
253 -648 0
291 -648 0
254 -649 0
292 -649 0
690 691 -356 0
295 -690 0
333 -690 0
296 -691 0
334 -691 0
398 399 -357 0
1 -398 0
41 -398 0
2 -399 0
42 -399 0
440 441 -357 0
43 -440 0
83 -440 0
44 -441 0
84 -441 0
482 483 -357 0
85 -482 0
125 -482 0
86 -483 0
126 -483 0
524 525 -357 0
127 -524 0
167 -524 0
128 -525 0
168 -525 0
566 567 -357 0
169 -566 0
209 -566 0
170 -567 0
210 -567 0
608 609 -357 0
211 -608 0
251 -608 0
212 -609 0
252 -609 0
650 651 -357 0
253 -650 0
293 -650 0
254 -651 0
294 -651 0
692 693 -357 0
295 -692 0
335 -692 0
296 -693 0
336 -693 0
-1 -43 -85 -127 -169 -211 -253 -295 0
-2 -44 -86 -128 -170 -212 -254 -296 0
